09-routing/solutions/XSH-n20-k4-12.opt.sol
Route #1: 10 9 18 17
Route #2: 15 13 14 6 16 4
Route #3: 8 2 7 20
Route #4: 12 11 1 3 19 5
Cost 709
